networks/zoo_106_1655/zoo_106_1655-lower.txt
Number of groups: 51
Flow 1: {1 2 0} {2 55 0} 
Flow 2: {1 4 0} {4 3 0} {3 56 0} 
Flow 3: {4 57 0} 
Flow 4: {2 48 0} {48 46 0} {46 6 0} {6 59 0} 
Flow 5: {48 7 0} {7 8 0} {8 61 0} 
Flow 6: {49 36 0} {36 10 0} {10 63 0} 
Flow 6: {48 49 0} Flow 7: {36 89 0} 
Flow 8: {10 38 0} {38 91 0} 
Flow 9: {36 42 0} {42 40 0} {40 93 0} 
Flow 10: {3 52 0} {52 50 0} {50 41 0} {41 94 0} 
Flow 11: {48 26 0} {26 44 0} {44 97 0} 
Flow 12: {3 45 0} {45 98 0} 
Flow 13: {44 51 0} {51 104 0} 
Flow 14: {52 105 0} 
Flow 15: {52 53 0} {53 106 0} 
Flow 16: {2 1 0} Flow 24: {36 50 0} Flow 29: {44 53 0} Flow 30: {4 1 0} {1 54 0} 
Flow 30: {3 4 0} Flow 31: {3 26 0} {26 48 0} {48 2 0} Flow 33: {8 5 0} {5 58 0} 
Flow 35: {7 60 0} 
Flow 37: {6 9 0} {9 62 0} 
Flow 38: {50 36 0} Flow 39: {7 11 0} {11 64 0} 
Flow 40: {6 13 0} {13 66 0} 
Flow 41: {4 14 0} {14 67 0} 
Flow 42: {7 15 0} {15 68 0} 
Flow 43: {53 16 0} {16 69 0} 
Flow 44: {36 17 0} {17 70 0} 
Flow 45: {50 18 0} {18 71 0} 
Flow 46: {41 19 0} {19 72 0} 
Flow 47: {6 20 0} {20 73 0} 
Flow 48: {6 21 0} {21 74 0} 
Flow 49: {4 22 0} {22 75 0} 
Flow 50: {4 23 0} {23 76 0} 
Flow 51: {52 24 0} {24 77 0} 
Flow 52: {41 25 0} {25 78 0} 
Flow 53: {7 27 0} {27 80 0} 
Flow 54: {10 28 0} {28 81 0} 
Flow 55: {10 29 0} {29 82 0} 
Flow 56: {50 30 0} {30 83 0} 
Flow 57: {48 31 0} {31 84 0} 
Flow 58: {4 32 0} {32 85 0} 
Flow 59: {4 34 0} {34 87 0} 
Flow 60: {48 35 0} {35 88 0} 
Flow 62: {36 37 0} {37 90 0} 
Flow 64: {10 39 0} {39 92 0} 
Flow 65: {41 40 0} Flow 67: {42 95 0} 
Flow 68: {36 43 0} {43 96 0} 
Flow 71: {46 99 0} 
Flow 72: {48 47 0} {47 100 0} 
Flow 73: {48 101 0} 
Flow 74: {49 102 0} 
Flow 75: {50 103 0} 
Flow 82: {4 48 0} Flow 128: {6 46 0} {46 48 0} Flow 130: {48 4 0} Flow 132: {6 5 0} Flow 133: {5 8 0} {8 7 0} Flow 136: {9 10 0} Flow 142: {10 36 0} Flow 149: {50 52 0} Flow 174: {50 51 0} Flow 177: {7 48 0} Flow 182: {5 6 0} Flow 240: {9 6 0} Flow 284: {36 49 0} {49 48 0} Flow 285: {10 9 0} Flow 286: {11 7 0} Flow 291: {12 10 0} {52 3 0} Flow 299: {51 44 0} Flow 302: {13 6 0} Flow 334: {14 4 0} Flow 363: {15 7 0} Flow 367: {16 53 0} {53 52 0} Flow 368: {53 44 0} {44 26 0} Flow 396: {44 45 0} Flow 403: {17 36 0} Flow 437: {18 50 0} Flow 453: {19 41 0} {41 50 0} Flow 473: {20 6 0} Flow 501: {21 6 0} Flow 505: {22 4 0} Flow 533: {23 4 0} Flow 549: {24 52 0} Flow 564: {25 41 0} Flow 592: {26 3 0} Flow 642: {27 7 0} Flow 662: {28 10 0} Flow 703: {29 10 0} Flow 734: {30 50 0} Flow 774: {31 48 0} Flow 808: {32 4 0} Flow 824: {33 36 0} Flow 864: {34 4 0} Flow 892: {35 48 0} Flow 969: {37 36 0} Flow 1001: {37 38 0} Flow 1002: {38 39 0} Flow 1006: {37 43 0} Flow 1017: {38 10 0} Flow 1050: {38 37 0} Flow 1066: {39 10 0} Flow 1092: {39 38 0} Flow 1106: {40 41 0} Flow 1107: {40 42 0} {42 36 0} Flow 1137: {42 43 0} Flow 1230: {43 36 0} Flow 1262: {43 37 0} Flow 1265: {43 42 0} Flow 1287: {51 50 0} Flow 1327: {45 3 0} Flow 1340: {45 44 0} Flow 1413: {47 48 0} Flow 1463: {10 12 0} {12 65 0} 
Time taken running everything: 0 seconds
