networks/zoo_106_1655/zoo_106_1655-lower.sol
<?xml version = "1.0" encoding="UTF-8" standalone="yes"?>
<CPLEXSolution version="1.2">
 <header
   problemName="networks/zoo_106_1655/zoo_106_1655-lower.lp"
   solutionName="incumbent"
   solutionIndex="-1"
   objectiveValue="51"
   solutionTypeValue="3"
   solutionTypeString="primal"
   solutionStatusValue="101"
   solutionStatusString="integer optimal solution"
   solutionMethodString="mip"
   primalFeasible="1"
   dualFeasible="1"
   MIPNodes="0"
   MIPIterations="0"
   writeLevel="3"/>
 <quality
   epInt="1.0000000000000001e-05"
   epRHS="9.9999999999999995e-07"
   maxIntInfeas="0"
   maxPrimalInfeas="0"
   maxX="1"
   maxSlack="1"/>
 <variables>
  <variable name="Y(1,2)" index="1" value="1"/>
  <variable name="Y(2,3)" index="106" value="1"/>
  <variable name="Y(3,4)" index="211" value="1"/>
  <variable name="Y(4,6)" index="317" value="1"/>
  <variable name="Y(5,8)" index="423" value="1"/>
  <variable name="Y(6,10)" index="529" value="1"/>
  <variable name="Y(7,36)" index="659" value="1"/>
  <variable name="Y(8,38)" index="765" value="1"/>
  <variable name="Y(9,40)" index="871" value="1"/>
  <variable name="Y(10,41)" index="976" value="1"/>
  <variable name="Y(11,44)" index="1083" value="1"/>
  <variable name="Y(12,45)" index="1188" value="1"/>
  <variable name="Y(13,51)" index="1298" value="1"/>
  <variable name="Y(14,52)" index="1403" value="1"/>
  <variable name="Y(15,53)" index="1508" value="1"/>
  <variable name="Y(30,1)" index="3016" value="1"/>
  <variable name="Y(33,5)" index="3332" value="1"/>
  <variable name="Y(35,7)" index="3542" value="1"/>
  <variable name="Y(37,9)" index="3752" value="1"/>
  <variable name="Y(39,11)" index="3962" value="1"/>
  <variable name="Y(40,13)" index="4068" value="1"/>
  <variable name="Y(41,14)" index="4173" value="1"/>
  <variable name="Y(42,15)" index="4278" value="1"/>
  <variable name="Y(43,16)" index="4383" value="1"/>
  <variable name="Y(44,17)" index="4488" value="1"/>
  <variable name="Y(45,18)" index="4593" value="1"/>
  <variable name="Y(46,19)" index="4698" value="1"/>
  <variable name="Y(47,20)" index="4803" value="1"/>
  <variable name="Y(48,21)" index="4908" value="1"/>
  <variable name="Y(49,22)" index="5013" value="1"/>
  <variable name="Y(50,23)" index="5118" value="1"/>
  <variable name="Y(51,24)" index="5223" value="1"/>
  <variable name="Y(52,25)" index="5328" value="1"/>
  <variable name="Y(53,27)" index="5434" value="1"/>
  <variable name="Y(54,28)" index="5539" value="1"/>
  <variable name="Y(55,29)" index="5644" value="1"/>
  <variable name="Y(56,30)" index="5749" value="1"/>
  <variable name="Y(57,31)" index="5854" value="1"/>
  <variable name="Y(58,32)" index="5959" value="1"/>
  <variable name="Y(59,34)" index="6065" value="1"/>
  <variable name="Y(60,35)" index="6170" value="1"/>
  <variable name="Y(62,37)" index="6380" value="1"/>
  <variable name="Y(64,39)" index="6590" value="1"/>
  <variable name="Y(67,42)" index="6905" value="1"/>
  <variable name="Y(68,43)" index="7010" value="1"/>
  <variable name="Y(71,46)" index="7325" value="1"/>
  <variable name="Y(72,47)" index="7430" value="1"/>
  <variable name="Y(73,48)" index="7535" value="1"/>
  <variable name="Y(74,49)" index="7640" value="1"/>
  <variable name="Y(75,50)" index="7745" value="1"/>
  <variable name="Y(1463,12)" index="152059" value="1"/>
  <variable name="X(1,2,1)" index="172120" value="1"/>
  <variable name="X(1,4,2)" index="173776" value="1"/>
  <variable name="X(1,54,30)" index="175459" value="1"/>
  <variable name="X(2,1,16)" index="177100" value="1"/>
  <variable name="X(2,48,4)" index="178743" value="1"/>
  <variable name="X(2,55,1)" index="180395" value="1"/>
  <variable name="X(3,4,30)" index="182079" value="1"/>
  <variable name="X(3,26,31)" index="183735" value="1"/>
  <variable name="X(3,45,12)" index="185371" value="1"/>
  <variable name="X(3,52,10)" index="187024" value="1"/>
  <variable name="X(3,56,2)" index="188671" value="1"/>
  <variable name="X(4,1,30)" index="190354" value="1"/>
  <variable name="X(4,3,2)" index="191981" value="1"/>
  <variable name="X(4,14,41)" index="193675" value="1"/>
  <variable name="X(4,22,49)" index="195338" value="1"/>
  <variable name="X(4,23,50)" index="196994" value="1"/>
  <variable name="X(4,32,58)" index="198657" value="1"/>
  <variable name="X(4,34,59)" index="200313" value="1"/>
  <variable name="X(4,48,82)" index="201991" value="1"/>
  <variable name="X(4,57,3)" index="203567" value="1"/>
  <variable name="X(5,6,182)" index="205401" value="1"/>
  <variable name="X(5,8,133)" index="207007" value="1"/>
  <variable name="X(5,58,33)" index="208562" value="1"/>
  <variable name="X(6,5,132)" index="210316" value="1"/>
  <variable name="X(6,9,37)" index="211876" value="1"/>
  <variable name="X(6,13,40)" index="213534" value="1"/>
  <variable name="X(6,20,47)" index="215196" value="1"/>
  <variable name="X(6,21,48)" index="216852" value="1"/>
  <variable name="X(6,46,128)" index="218587" value="1"/>
  <variable name="X(6,59,4)" index="220118" value="1"/>
  <variable name="X(7,8,5)" index="221774" value="1"/>
  <variable name="X(7,11,39)" index="223463" value="1"/>
  <variable name="X(7,15,42)" index="225121" value="1"/>
  <variable name="X(7,27,53)" index="226787" value="1"/>
  <variable name="X(7,48,177)" index="228566" value="1"/>
  <variable name="X(7,60,35)" index="230079" value="1"/>
  <variable name="X(8,5,33)" index="231732" value="1"/>
  <variable name="X(8,7,133)" index="233487" value="1"/>
  <variable name="X(8,61,5)" index="235014" value="1"/>
  <variable name="X(9,6,240)" index="236904" value="1"/>
  <variable name="X(9,10,136)" index="238455" value="1"/>
  <variable name="X(9,62,37)" index="240011" value="1"/>
  <variable name="X(10,9,285)" index="241914" value="1"/>
  <variable name="X(10,12,1463)" index="244747" value="1"/>
  <variable name="X(10,28,54)" index="244993" value="1"/>
  <variable name="X(10,29,55)" index="246649" value="1"/>
  <variable name="X(10,36,142)" index="248391" value="1"/>
  <variable name="X(10,38,8)" index="249912" value="1"/>
  <variable name="X(10,39,64)" index="251623" value="1"/>
  <variable name="X(10,63,6)" index="253220" value="1"/>
  <variable name="X(11,7,286)" index="255155" value="1"/>
  <variable name="X(11,64,39)" index="256563" value="1"/>
  <variable name="X(12,10,291)" index="258470" value="1"/>
  <variable name="X(12,65,1463)" index="261297" value="1"/>
  <variable name="X(13,6,302)" index="261791" value="1"/>
  <variable name="X(13,66,40)" index="263184" value="1"/>
  <variable name="X(14,4,334)" index="265133" value="1"/>
  <variable name="X(14,67,41)" index="266495" value="1"/>
  <variable name="X(15,7,363)" index="268472" value="1"/>
  <variable name="X(15,68,42)" index="269806" value="1"/>
  <variable name="X(16,53,367)" index="271786" value="1"/>
  <variable name="X(16,69,43)" index="273117" value="1"/>
  <variable name="X(17,36,403)" index="275132" value="1"/>
  <variable name="X(17,70,44)" index="276428" value="1"/>
  <variable name="X(18,50,437)" index="278476" value="1"/>
  <variable name="X(18,71,45)" index="279739" value="1"/>
  <variable name="X(19,41,453)" index="281802" value="1"/>
  <variable name="X(19,72,46)" index="283050" value="1"/>
  <variable name="X(20,6,473)" index="285132" value="1"/>
  <variable name="X(20,73,47)" index="286361" value="1"/>
  <variable name="X(21,6,501)" index="288470" value="1"/>
  <variable name="X(21,74,48)" index="289672" value="1"/>
  <variable name="X(22,4,505)" index="291784" value="1"/>
  <variable name="X(22,75,49)" index="292983" value="1"/>
  <variable name="X(23,4,533)" index="295122" value="1"/>
  <variable name="X(23,76,50)" index="296294" value="1"/>
  <variable name="X(24,52,549)" index="298448" value="1"/>
  <variable name="X(24,77,51)" index="299605" value="1"/>
  <variable name="X(25,41,564)" index="301773" value="1"/>
  <variable name="X(25,78,52)" index="302916" value="1"/>
  <variable name="X(26,3,592)" index="305111" value="1"/>
  <variable name="X(26,44,11)" index="306185" value="1"/>
  <variable name="X(26,48,31)" index="307860" value="1"/>
  <variable name="X(27,7,642)" index="310126" value="1"/>
  <variable name="X(27,80,53)" index="311192" value="1"/>
  <variable name="X(28,10,662)" index="313456" value="1"/>
  <variable name="X(28,81,54)" index="314503" value="1"/>
  <variable name="X(29,10,703)" index="316807" value="1"/>
  <variable name="X(29,82,55)" index="317814" value="1"/>
  <variable name="X(30,50,734)" index="320148" value="1"/>
  <variable name="X(30,83,56)" index="321125" value="1"/>
  <variable name="X(31,48,774)" index="323498" value="1"/>
  <variable name="X(31,84,57)" index="324436" value="1"/>
  <variable name="X(32,4,808)" index="326842" value="1"/>
  <variable name="X(32,85,58)" index="327747" value="1"/>
  <variable name="X(33,36,824)" index="330168" value="1"/>
  <variable name="X(34,4,864)" index="331863" value="1"/>
  <variable name="X(34,87,59)" index="332713" value="1"/>
  <variable name="X(35,48,892)" index="335201" value="1"/>
  <variable name="X(35,88,60)" index="336024" value="1"/>
  <variable name="X(36,10,6)" index="337625" value="1"/>
  <variable name="X(36,17,44)" index="339318" value="1"/>
  <variable name="X(36,37,62)" index="340991" value="1"/>
  <variable name="X(36,42,9)" index="342593" value="1"/>
  <variable name="X(36,43,68)" index="344307" value="1"/>
  <variable name="X(36,49,284)" index="346178" value="1"/>
  <variable name="X(36,50,24)" index="347573" value="1"/>
  <variable name="X(36,89,7)" index="349211" value="1"/>
  <variable name="X(37,36,969)" index="351828" value="1"/>
  <variable name="X(37,38,1001)" index="353515" value="1"/>
  <variable name="X(37,43,1006)" index="355175" value="1"/>
  <variable name="X(37,90,62)" index="355886" value="1"/>
  <variable name="X(38,10,1017)" index="358496" value="1"/>
  <variable name="X(38,37,1050)" index="360184" value="1"/>
  <variable name="X(38,39,1002)" index="361791" value="1"/>
  <variable name="X(38,91,8)" index="362452" value="1"/>
  <variable name="X(39,10,1066)" index="365165" value="1"/>
  <variable name="X(39,38,1092)" index="366846" value="1"/>
  <variable name="X(39,92,64)" index="367473" value="1"/>
  <variable name="X(40,41,1106)" index="370170" value="1"/>
  <variable name="X(40,42,1107)" index="371826" value="1"/>
  <variable name="X(40,93,9)" index="372383" value="1"/>
  <variable name="X(41,19,46)" index="374075" value="1"/>
  <variable name="X(41,25,52)" index="375736" value="1"/>
  <variable name="X(41,40,65)" index="377404" value="1"/>
  <variable name="X(41,50,453)" index="379447" value="1"/>
  <variable name="X(41,94,10)" index="380659" value="1"/>
  <variable name="X(42,36,1107)" index="383411" value="1"/>
  <variable name="X(42,40,9)" index="383968" value="1"/>
  <variable name="X(42,43,1137)" index="386751" value="1"/>
  <variable name="X(42,95,67)" index="387336" value="1"/>
  <variable name="X(43,36,1230)" index="390154" value="1"/>
  <variable name="X(43,37,1262)" index="391841" value="1"/>
  <variable name="X(43,42,1265)" index="393499" value="1"/>
  <variable name="X(43,96,68)" index="393957" value="1"/>
  <variable name="X(44,26,368)" index="395912" value="1"/>
  <variable name="X(44,45,396)" index="397595" value="1"/>
  <variable name="X(44,51,13)" index="398867" value="1"/>
  <variable name="X(44,53,29)" index="400538" value="1"/>
  <variable name="X(44,97,11)" index="402175" value="1"/>
  <variable name="X(45,3,1327)" index="405146" value="1"/>
  <variable name="X(45,44,1340)" index="406814" value="1"/>
  <variable name="X(45,98,12)" index="407141" value="1"/>
  <variable name="X(46,6,4)" index="408788" value="1"/>
  <variable name="X(46,48,128)" index="410567" value="1"/>
  <variable name="X(46,99,71)" index="412165" value="1"/>
  <variable name="X(47,48,1413)" index="415162" value="1"/>
  <variable name="X(47,100,72)" index="415476" value="1"/>
  <variable name="X(48,2,31)" index="417090" value="1"/>
  <variable name="X(48,4,130)" index="418844" value="1"/>
  <variable name="X(48,7,5)" index="420374" value="1"/>
  <variable name="X(48,26,11)" index="422035" value="1"/>
  <variable name="X(48,31,57)" index="423736" value="1"/>
  <variable name="X(48,35,60)" index="425394" value="1"/>
  <variable name="X(48,46,4)" index="426993" value="1"/>
  <variable name="X(48,47,72)" index="428716" value="1"/>
  <variable name="X(48,49,6)" index="430305" value="1"/>
  <variable name="X(48,101,73)" index="432027" value="1"/>
  <variable name="X(49,36,6)" index="433615" value="1"/>
  <variable name="X(49,48,284)" index="435548" value="1"/>
  <variable name="X(49,102,74)" index="436993" value="1"/>
  <variable name="X(50,18,45)" index="438619" value="1"/>
  <variable name="X(50,30,56)" index="440285" value="1"/>
  <variable name="X(50,36,38)" index="441922" value="1"/>
  <variable name="X(50,41,10)" index="443549" value="1"/>
  <variable name="X(50,51,174)" index="445368" value="1"/>
  <variable name="X(50,52,149)" index="446998" value="1"/>
  <variable name="X(50,103,75)" index="448579" value="1"/>
  <variable name="X(51,44,299)" index="450458" value="1"/>
  <variable name="X(51,50,1287)" index="453101" value="1"/>
  <variable name="X(51,104,13)" index="453482" value="1"/>
  <variable name="X(52,3,291)" index="455415" value="1"/>
  <variable name="X(52,24,51)" index="456830" value="1"/>
  <variable name="X(52,50,10)" index="458444" value="1"/>
  <variable name="X(52,53,15)" index="460104" value="1"/>
  <variable name="X(52,105,14)" index="461758" value="1"/>
  <variable name="X(53,16,43)" index="463442" value="1"/>
  <variable name="X(53,44,368)" index="465422" value="1"/>
  <variable name="X(53,52,367)" index="467076" value="1"/>
  <variable name="X(53,106,15)" index="468379" value="1"/>
 </variables>
</CPLEXSolution>
